; benchmark generated from python API
(set-info :status unknown)
(declare-fun S_1 () Real)
(declare-fun L_3 () Real)
(declare-fun A_3 () Real)
(declare-fun S_3 () Real)
(declare-fun S_4 () Real)
(declare-fun L_0 () Real)
(declare-fun A_0 () Real)
(declare-fun S_0 () Real)
(declare-fun S_2 () Real)
(declare-fun L_2 () Real)
(declare-fun A_1 () Real)
(declare-fun L_1 () Real)
(declare-fun A_2 () Real)
(declare-fun A_4 () Real)
(assert
 (let (($x2445 (<= (+ (* (- 1.0) S_3) (* (- 1.0) A_0) (* 2.0 S_1) L_0) 0.0)))
 (let (($x34 (>= L_0 0.0)))
 (let (($x33861 (<= (+ (* (- 1.0) A_3) (* (/ 3.0 2.0) S_2) (* (- (/ 1.0 2.0)) S_1) L_3) (- 5.0))))
 (let (($x71 (= L_3 L_2)))
 (let ((?x368 (* (- 1.0) A_3)))
 (let ((?x15804 (* (/ 1.0 3.0) A_1)))
 (let ((?x17459 (* (- (/ 1.0 3.0)) L_1)))
 (let ((?x3382 (* (/ 2.0 3.0) S_4)))
 (let (($x34016 (or $x71 (<= (+ (* (/ 3.0 4.0) S_4) ?x368 (* (/ 1.0 4.0) S_0) L_3) (- 5.0)) (<= (+ ?x3382 ?x17459 ?x15804 ?x368 L_3) (- 5.0)))))
 (let ((?x238 (* (- 1.0) L_1)))
 (let ((?x365 (* (- 1.0) A_2)))
 (let ((?x8490 (+ ?x365 L_2 S_4 ?x238 A_1 ?x368 L_3)))
 (let (($x61 (= L_2 L_1)))
 (let (($x56538 (or $x61 (<= ?x8490 (- 5.0)) (not (<= 0.0 (+ S_4 L_1 (* (- 1.0) A_1) ?x368 L_3 S_0))))))
 (let ((?x1374 (* 2.0 L_3)))
 (let ((?x1385 (* (- 2.0) A_3)))
 (let ((?x8662 (* 2.0 S_4)))
 (let ((?x363 (* (- 1.0) A_1)))
 (let ((?x18804 (+ S_4 L_1 ?x363 ?x368 L_3 S_0)))
 (let (($x33720 (<= 0.0 ?x18804)))
 (let (($x33976 (or $x71 (<= (+ ?x368 S_0 L_3) (- 20.0)) (<= (+ ?x238 A_1 ?x368 L_3) (- 15.0)))))
 (let (($x33933 (or $x71 (<= (+ ?x368 (* 2.0 S_1) (* (- 1.0) S_0) L_3) (- 5.0)))))
 (let ((?x337 (* (- 1.0) S_1)))
 (let ((?x1064 (* (- 2.0) L_2)))
 (let ((?x1063 (* 2.0 A_2)))
 (let ((?x643 (* 3.0 L_3)))
 (let ((?x1161 (* (- 3.0) A_3)))
 (let ((?x968 (* (- 3.0) L_2)))
 (let ((?x977 (* 3.0 A_2)))
 (let ((?x1373 (* (- 3.0) L_3)))
 (let ((?x605 (* 3.0 A_3)))
 (let ((?x357 (* (- 1.0) S_4)))
 (let ((?x1056 (* 3.0 L_2)))
 (let ((?x1055 (* (- 3.0) A_2)))
 (let ((?x1370 (* (- 2.0) L_3)))
 (let ((?x1381 (* 2.0 A_3)))
 (let ((?x1070 (* 2.0 L_2)))
 (let ((?x1069 (* (- 2.0) A_2)))
 (let (($x57621 (or $x61 (<= (+ ?x1069 ?x1070 ?x357 ?x238 A_1 ?x1381 ?x1370) 0.0) (<= (+ ?x1055 ?x1056 ?x357 ?x605 S_0 ?x1373) 0.0))))
 (let (($x56859 (or $x71 (<= (+ ?x1063 ?x1064 ?x1385 S_1 (* (- 1.0) S_0) ?x1374) 0.0))))
 (let (($x13882 (<= (+ S_4 ?x238 A_1 (* (- 1.0) S_3) ?x368 L_3) 0.0)))
 (let (($x27157 (or (<= (+ S_4 (* (- (/ 1.0 2.0)) S_3) ?x368 L_3 (* (/ 1.0 2.0) S_0)) 0.0) $x13882)))
 (let (($x51 (= L_1 L_0)))
 (let (($x33441 (or $x51 (<= (+ (* (/ 1.0 4.0) S_4) L_1 ?x363 (* (/ 3.0 4.0) S_0)) (- 5.0)))))
 (let (($x33437 (or $x71 (<= (+ ?x368 (* (/ 4.0 3.0) S_2) (* (- (/ 1.0 3.0)) S_0) L_3) (- 5.0)))))
 (let (($x32011 (<= (+ ?x368 (* (- (/ 1.0 2.0)) A_0) L_3 (* (/ 3.0 2.0) S_2) (* (/ 1.0 2.0) L_0)) (- 5.0))))
 (let (($x2266 (<= (+ ?x238 A_1 (* (- 1.0) S_2)) 0.0)))
 (let ((?x1377 (* 4.0 L_3)))
 (let ((?x1228 (* (- 4.0) A_3)))
 (let ((?x1090 (* (- 4.0) L_2)))
 (let ((?x1089 (* 4.0 A_2)))
 (let ((?x1397 (* 5.0 L_3)))
 (let ((?x1008 (* (- 1.0) S_0)))
 (let ((?x1396 (* (- 5.0) A_3)))
 (let ((?x1395 (* (- 5.0) L_2)))
 (let ((?x1394 (* 5.0 A_2)))
 (let (($x8032 (<= (+ ?x365 L_2 ?x238 A_1 (* (- 1.0) S_3) A_3 (* (- 1.0) L_3)) 0.0)))
 (let (($x36440 (or $x61 $x8032 (<= (+ ?x1069 ?x1070 (* (- 1.0) S_3) ?x1381 S_0 ?x1370) 0.0))))
 (let (($x56764 (or $x61 (<= (+ ?x1069 ?x1070 ?x238 A_1 A_3 (* (- 1.0) L_3)) (- 5.0)) (<= (+ ?x1055 ?x1056 ?x1381 S_0 ?x1370) (- 5.0)))))
 (let ((?x1661 (* (- 2.0) S_1)))
 (let ((?x1654 (* 2.0 S_2)))
 (let ((?x1072 (* 2.0 A_1)))
 (let ((?x1071 (* (- 2.0) L_1)))
 (let (($x19743 (<= (+ ?x8662 (* (- 4.0) L_1) (* 4.0 A_1) ?x1228 ?x1661 ?x1377) 0.0)))
 (let ((?x1636 (* (- (/ 1.0 2.0)) L_3)))
 (let ((?x343 (* (- 1.0) S_2)))
 (let ((?x1644 (* (/ 1.0 2.0) A_3)))
 (let ((?x1638 (* (- (/ 1.0 2.0)) A_1)))
 (let ((?x1640 (* (/ 1.0 2.0) L_1)))
 (let ((?x1602 (* (- 2.0) S_3)))
 (let ((?x1066 (* (- 2.0) A_1)))
 (let ((?x1065 (* 2.0 L_1)))
 (let ((?x3224 (* (- (/ 3.0 2.0)) A_1)))
 (let ((?x3101 (* (/ 3.0 2.0) L_1)))
 (let (($x17169 (<= (+ ?x357 ?x3101 ?x3224 (* (/ 3.0 2.0) A_3) S_0 (* (- (/ 3.0 2.0)) L_3)) 0.0)))
 (let ((?x1693 (* 2.0 L_0)))
 (let ((?x2349 (* 2.0 S_1)))
 (let ((?x1692 (* (- 2.0) A_0)))
 (let (($x19765 (<= (+ ?x8662 (* (- 4.0) L_1) (* 4.0 A_1) ?x1228 ?x1692 ?x1377 ?x1693) 0.0)))
 (let ((?x1673 (* (/ 3.0 2.0) L_3)))
 (let ((?x1672 (* (- (/ 3.0 2.0)) A_3)))
 (let ((?x1671 (* (/ 3.0 2.0) A_1)))
 (let ((?x1669 (* (- (/ 3.0 2.0)) L_1)))
 (let (($x57587 (or $x51 (<= (+ ?x357 L_1 ?x363 A_3 S_1 (* (- 1.0) L_3)) 0.0))))
 (let (($x32998 (or $x61 (<= (+ ?x365 L_2 (* (/ 1.0 3.0) S_4) (* (/ 2.0 3.0) S_1)) (- 5.0)))))
 (let (($x28575 (<= 0.0 (+ S_4 ?x368 L_3))))
 (let (($x56252 (or $x71 (<= (+ ?x1089 ?x1090 S_4 ?x1228 (* (- 1.0) A_0) ?x1377 L_0) 0.0))))
 (let (($x32947 (or $x61 (<= (+ ?x365 L_2 (* (/ 1.0 2.0) S_4) (* (/ 1.0 2.0) S_0)) (- 5.0)) (<= (+ ?x1055 ?x1056 S_4 ?x1071 ?x1072) (- 15.0)))))
 (let (($x23602 (or (<= (+ (* (/ 1.0 2.0) S_4) (* (- 1.0) S_3) (* (/ 1.0 2.0) S_0)) 0.0) (not (<= (+ L_1 ?x363 (* (/ 1.0 2.0) S_3) (* (/ 1.0 2.0) S_0)) 0.0)))))
 (let (($x56783 (or (<= (+ ?x3382 (* (- (/ 4.0 3.0)) L_1) (* (/ 4.0 3.0) A_1) ?x1602) 0.0) (not (<= 0.0 (+ L_1 ?x363 (* (/ 1.0 2.0) S_3) (* (/ 1.0 2.0) S_0)))))))
 (let (($x56209 (or $x61 $x2266 (<= (+ ?x365 L_2 A_3 ?x343 S_0 (* (- 1.0) L_3)) 0.0))))
 (let (($x57086 (or $x71 (<= (+ S_4 (* (- (/ 1.0 2.0)) L_1) (* (/ 1.0 2.0) A_1) ?x1672 ?x1673) (- 5.0)))))
 (let ((?x974 (* 4.0 A_1)))
 (let ((?x1012 (* (- 4.0) L_1)))
 (let ((?x1005 (* 4.0 L_2)))
 (let ((?x1016 (* (- 4.0) A_2)))
 (let ((?x12911 (* 5.0 A_1)))
 (let ((?x4786 (* (- 5.0) L_1)))
 (let ((?x13666 (* 5.0 L_2)))
 (let ((?x11750 (* (- 5.0) A_2)))
 (let (($x12508 (<= (+ ?x1055 ?x1056 S_4 (* (- 3.0) L_1) (* 3.0 A_1) ?x343) 0.0)))
 (let (($x32482 (or $x61 (<= (+ ?x365 L_2 S_0) (- 15.0)) (<= (+ ?x365 L_2 ?x238 A_1) (- 10.0)))))
 (let (($x56660 (or $x61 (<= (+ ?x1016 ?x1005 S_4 ?x1012 ?x974 (* (- 1.0) A_0) L_0) 0.0))))
 (let ((?x19742 (* (/ 5.0 2.0) L_3)))
 (let ((?x19733 (* (- (/ 5.0 2.0)) A_3)))
 (let ((?x19741 (* (/ 5.0 2.0) A_1)))
 (let ((?x19737 (* (- (/ 5.0 2.0)) L_1)))
 (let (($x484 (not (<= 0.0 (+ ?x238 L_0)))))
 (let (($x32223 (or $x51 $x71 (<= (+ ?x1640 ?x1638 (* (- (/ 1.0 2.0)) A_3) (* (/ 1.0 2.0) L_3) S_2) (- 5.0)))))
 (let (($x56300 (or $x51 (<= (+ L_1 ?x363 ?x1602 A_3 ?x2349 (* (- 1.0) L_3)) 0.0))))
 (let ((?x4875 (* 2.0 S_3)))
 (let ((?x1058 (* 3.0 A_1)))
 (let ((?x1057 (* (- 3.0) L_1)))
 (let (($x31936 (or $x51 (<= (+ L_1 ?x363 (* (/ 1.0 2.0) S_2) (* (/ 1.0 2.0) S_0)) (- 5.0)))))
 (let (($x57664 (or $x61 (<= (+ ?x1055 ?x1056 ?x1057 ?x1058 S_3 (* (- 1.0) A_0) L_0) 0.0))))
 (let (($x57658 (or $x51 (<= (+ ?x357 ?x1640 ?x1638 ?x1644 ?x1636 S_2) 0.0) (<= (+ ?x365 L_2 ?x357 S_3 A_3 (* (- 1.0) L_3)) 0.0))))
 (let (($x30387 (not (<= 0.0 (+ L_2 (* (- 1.0) L_3))))))
 (let (($x31833 (or $x51 (<= (+ (* (- 1.0) L_2) ?x357 L_1 ?x363 A_3 S_1) 0.0) $x30387)))
 (let (($x35936 (or $x71 (<= (+ A_2 (* (- 1.0) L_2) L_1 ?x363 ?x368 S_2 L_3) 0.0))))
 (let (($x39021 (or $x71 (<= (+ ?x1063 ?x1064 ?x1385 (* (- 1.0) A_0) S_2 ?x1374 L_0) 0.0))))
 (let (($x7063 (<= (+ A_2 ?x238 ?x368 (* (/ 1.0 2.0) S_1) (* (- (/ 1.0 2.0)) S_0) L_3) 0.0)))
 (let (($x1589 (not $x61)))
 (let (($x56253 (or $x61 (<= (+ ?x365 L_2 ?x357 A_3 S_2 (* (- 1.0) L_3)) 0.0))))
 (let (($x31726 (or (<= (+ (* (- (/ 1.0 2.0)) S_3) (* (/ 1.0 2.0) S_0)) (- 5.0)) (<= (+ ?x238 A_1 (* (- 1.0) S_3)) (- 5.0)))))
 (let (($x56684 (or $x71 (<= (+ ?x977 ?x968 S_3 ?x1161 (* (- 1.0) A_0) ?x643 L_0) 0.0))))
 (let (($x56611 (or $x61 (<= (+ ?x1069 ?x1070 S_4 ?x1071 ?x1072 (* (- 1.0) S_3)) 0.0))))
 (let (($x32215 (or $x61 (<= (+ ?x1069 ?x1070 ?x1071 ?x1072 (* (- 1.0) A_0) S_2 L_0) 0.0))))
 (let (($x56601 (or $x51 $x28575 (<= (+ A_2 (* (- 1.0) L_2) ?x357 L_1 ?x363 S_2) 0.0))))
 (let (($x57210 (or $x71 (<= (+ ?x1063 ?x1064 S_4 (* (- 1.0) S_3) ?x1385 ?x1374) 0.0))))
 (let (($x31146 (or $x51 $x71 (<= 0.0 (+ ?x1069 ?x1070 ?x238 A_1 A_3 (* (- 1.0) L_3))))))
 (let (($x8685 (<= (+ (* (- 2.0) S_4) (* (- 1.0) A_0) (* 3.0 S_2) L_0) 0.0)))
 (let (($x57068 (or $x51 (<= (+ ?x1063 ?x1064 ?x1065 ?x1066 (* (- 1.0) S_3) S_0) 0.0))))
 (let (($x56558 (or $x61 (<= 0.0 (+ ?x1063 (* (- 1.0) L_2) L_1 ?x363 ?x368)) $x30387)))
 (let (($x946 (<= (+ ?x977 ?x968 ?x357 (* 3.0 L_1) (* (- 3.0) A_1) S_0) 0.0)))
 (let (($x35804 (or $x61 (<= (+ ?x365 L_2 ?x238 A_1 (* (- 1.0) A_0) S_1 L_0) 0.0))))
 (let (($x30937 (or $x61 (<= (+ ?x365 L_2 (* (/ 3.0 2.0) S_1) (* (- (/ 1.0 2.0)) S_0)) (- 5.0)))))
 (let (($x8443 (<= (+ A_2 (* (- 1.0) L_2) L_1 ?x363 (* (- 1.0) S_3) S_1) 0.0)))
 (let (($x492 (not (<= 0.0 (+ (* (- 1.0) L_2) L_1)))))
 (let (($x6228 (<= (+ A_2 (* (- 1.0) L_2) ?x368 (* (- 1.0) A_0) S_1 L_3 L_0) 0.0)))
 (let (($x6633 (<= (+ ?x365 L_2 (* (- 1.0) S_3) A_3 S_1 (* (- 1.0) L_3)) 0.0)))
 (let (($x30606 (or $x28575 (<= (+ (* (- (/ 1.0 3.0)) S_4) (* (/ 1.0 3.0) S_0)) (- 5.0)) (<= (+ (* (- (/ 1.0 2.0)) S_4) (* (- (/ 1.0 2.0)) L_1) (* (/ 1.0 2.0) A_1)) (- 5.0)))))
 (let (($x2766 (<= (+ (* (- (/ 1.0 2.0)) S_4) (* (- 1.0) A_0) (* (/ 3.0 2.0) S_1) L_0) 0.0)))
 (let (($x56642 (or $x51 (<= (+ A_2 (* (- 1.0) L_2) L_1 ?x363 ?x343 S_0) 0.0))))
 (let (($x1407 (<= (+ ?x1069 ?x1070 A_1 A_3 (* (- 1.0) L_3) (* (- 1.0) L_0)) 0.0)))
 (let (($x108 (>= S_1 S_0)))
 (let (($x111 (>= S_2 S_1)))
 (let (($x114 (>= S_3 S_2)))
 (let (($x119 (>= A_1 A_0)))
 (let (($x121 (>= A_3 A_2)))
 (let (($x122 (>= A_4 A_3)))
 (and (<= (+ A_2 (* (- 1.0) L_2)) S_4) (<= (+ A_1 ?x238) S_3) (not (<= (+ A_2 (* (- 1.0) L_2)) S_3)) $x122 $x121 $x119 $x114 $x111 $x108 (or $x61 $x492) (or $x51 $x484) (or $x61 (<= (+ ?x365 L_2 ?x238 A_1) (- 5.0))) (or $x51 $x61 $x71 (= (+ ?x1063 ?x1064 L_1 ?x363 ?x368 L_3) 0.0)) (or $x61 $x484 $x1407) (or $x30387 $x71) $x56642 (<= (+ S_4 (* (- 1.0) A_4) L_3) 0.0) (or $x2766 $x28575) $x30606 (or $x71 (<= (+ A_2 (* (- 1.0) L_2) ?x368 L_3) (- 5.0))) (or $x71 (<= (+ ?x977 ?x968 S_4 ?x1161 ?x343 ?x643) 0.0)) (or $x61 $x6633) (or $x71 $x6228) (or $x61 (<= (+ ?x1069 ?x1070 ?x357 ?x1381 S_1 ?x1370) 0.0)) (or $x71 (<= (+ ?x1063 ?x1064 L_1 ?x363 S_3 ?x1385 ?x1374) 0.0)) (or $x71 (<= (+ ?x1063 ?x1064 S_3 ?x1385 ?x343 ?x1374) 0.0)) (or $x51 (<= (+ L_1 ?x363 S_1) (- 5.0))) (or $x28575 (<= (+ (* (- (/ 1.0 2.0)) S_4) ?x1640 ?x1638 S_2) 0.0)) (or $x51 $x492 (<= (+ A_2 ?x363 (* (- 1.0) S_3) S_1) 0.0)) (or $x61 (<= (+ ?x365 L_2 S_2) (- 5.0))) (or $x51 $x8443) $x30937 (or $x61 (<= (+ ?x365 L_2 (* (- 1.0) A_0) ?x2349 L_0) (- 5.0))) (or $x28575 (<= (+ (* (- (/ 1.0 2.0)) S_4) (* (/ 1.0 2.0) S_1)) (- 5.0))) $x35804 (or $x51 $x28575 (<= (+ ?x1063 ?x1064 ?x357 ?x1065 ?x1066 S_1) 0.0)) (or $x61 (<= (+ ?x365 L_2 S_1) (- 10.0))) (or $x61 (<= (+ ?x1069 ?x1070 ?x1071 ?x1072 S_1 ?x1008) 0.0)) (or $x28575 (<= (+ ?x357 ?x2349 ?x1008) 0.0)) (<= (+ L_1 ?x363 S_1) 0.0) (or $x51 $x946 $x28575) $x56558 (or $x71 (<= (+ ?x1089 ?x1090 S_3 ?x1228 ?x1008 ?x1377) 0.0)) $x57068 (or $x8685 $x28575) $x31146 $x57210 (or $x61 (<= (+ ?x365 ?x357 A_3 S_2) 0.0) $x30387) $x56601 $x32215 (or $x61 (<= (+ ?x1069 ?x1070 ?x1071 ?x1072 S_2 ?x337) 0.0)) $x56611 $x56684 (or $x51 $x28575 (<= (+ ?x357 L_1 ?x363 ?x1654) (- 5.0))) $x31726 (or $x51 (<= (+ A_2 (* (- 1.0) L_2) ?x1065 ?x1066 S_0) (- 5.0))) (or $x28575 (<= (+ (* (- 2.0) S_4) (* 3.0 S_2) ?x337) 0.0)) (or $x61 (<= (+ ?x1055 ?x1056 ?x1057 ?x1058 S_2 ?x1008) 0.0)) $x56253 (or $x71 $x1589 $x7063) (or $x71 (<= (+ ?x977 ?x968 ?x1161 S_2 ?x1008 ?x643) 0.0)) (or $x71 (<= (+ ?x368 S_1 L_3) (- 15.0))) $x39021 $x35936 (or $x61 (<= (+ ?x1069 ?x1070 A_3 S_1 (* (- 1.0) L_3)) (- 5.0))) $x31833 $x57658 $x57664 (or $x61 (<= (+ ?x1069 ?x1070 ?x1071 ?x1072 S_3 ?x343) 0.0)) $x31936 (or $x61 (<= (+ ?x1016 ?x1005 ?x1012 ?x974 S_3 ?x1008) 0.0)) (or $x71 (<= (+ ?x238 A_1 S_3 ?x368 ?x343 L_3) 0.0)) (or $x61 (<= (+ ?x1055 ?x1056 ?x1057 ?x1058 S_3 ?x337) 0.0)) (or $x71 (<= (+ ?x1057 ?x1058 ?x4875 ?x1161 ?x1692 ?x643 ?x1693) 0.0)) (or $x71 (<= (+ ?x1057 ?x1058 ?x4875 ?x1161 ?x1661 ?x643) 0.0)) (<= (+ (* (/ 1.0 3.0) S_4) (* (- 1.0) S_3) (* (/ 2.0 3.0) S_1)) 0.0) (or $x71 (<= (+ ?x368 ?x1692 (* 3.0 S_1) L_3 ?x1693) (- 5.0))) $x56300 (or $x51 (<= (+ ?x3101 ?x3224 ?x1644 S_0 ?x1636) (- 5.0))) (or $x71 (<= (+ A_2 (* (- 1.0) L_2) S_4 ?x1385 ?x1374) (- 5.0))) (or $x71 (<= (+ ?x3382 ?x368 (* (/ 1.0 3.0) S_1) L_3) (- 5.0))) (or $x61 (<= ?x8490 0.0)) (or $x61 (<= (+ ?x1055 ?x1056 S_4 ?x1071 ?x1072) (- 5.0))) $x32223 (or $x71 $x484 (<= (+ A_1 ?x368 ?x1692 ?x2349 L_3 L_0) 0.0)) (or $x71 (<= (+ ?x1669 ?x1671 ?x1672 ?x1673 S_2 ?x1008) 0.0)) (or $x71 (<= (+ S_4 ?x19737 ?x19741 ?x19733 ?x1008 ?x19742) 0.0)) $x56660 (or (<= (+ (* (/ 1.0 4.0) S_4) ?x343 (* (/ 3.0 4.0) S_0)) 0.0) $x2266) $x32482 (or $x2266 (<= (+ ?x343 S_0) (- 5.0))) (or (<= (+ (* (/ 1.0 3.0) S_3) ?x343 (* (/ 2.0 3.0) S_0)) 0.0) $x2266) (or $x61 $x12508) (or $x61 (<= (+ ?x11750 ?x13666 S_4 ?x4786 ?x12911 ?x1008) 0.0)) (or $x61 (<= (+ ?x1016 ?x1005 S_4 ?x1012 ?x974 ?x337) 0.0)) $x57086 (or $x71 $x13882) $x56209 $x56783 $x23602 $x32947 $x56252 (or $x28575 (<= (+ ?x357 S_2) (- 5.0))) (or $x28575 (<= (+ ?x357 (* (/ 4.0 3.0) S_2) (* (- (/ 1.0 3.0)) S_0)) 0.0)) (or $x51 (<= (+ L_1 ?x363 S_0) (- 10.0))) $x32998 $x57587 (or $x71 (<= (+ ?x238 A_1 ?x368 L_3) (- 10.0))) (or $x71 (<= (+ S_4 ?x1669 ?x1671 ?x1672 ?x343 ?x1673) 0.0)) (or $x71 (<= (+ S_4 ?x1385 S_2 ?x1374) (- 10.0))) (or $x61 (<= (+ ?x365 L_2 S_4 ?x368 L_3 S_1) (- 5.0))) (or $x71 (<= (+ ?x1071 ?x1072 S_3 ?x1385 ?x1008 ?x1374) 0.0)) (or $x71 (<= (+ ?x1071 ?x1072 ?x1385 ?x1692 ?x1374 ?x1654 ?x1693) 0.0)) (or $x71 $x19765) (or $x71 (<= (+ ?x238 A_1 ?x368 ?x1692 ?x2349 L_3 ?x1693) 0.0)) (or $x51 $x17169) (or $x71 (<= (+ ?x238 A_1 ?x368 S_1 ?x1008 L_3) 0.0)) (or $x51 (<= (+ ?x1065 ?x1066 ?x1602 ?x1381 (* 2.0 S_0) ?x1370) 0.0)) (or $x51 (<= (+ ?x1640 ?x1638 ?x1644 ?x343 S_0 ?x1636) 0.0)) (or $x71 $x19743) (or $x71 (<= (+ ?x1071 ?x1072 ?x1385 ?x1374 ?x1654 ?x1661) 0.0)) $x56764 $x36440 (or $x71 (<= (+ ?x1394 ?x1395 S_4 ?x1396 ?x1008 ?x1397) 0.0)) (or $x71 (<= (+ ?x977 ?x968 S_4 L_1 ?x363 ?x1161 ?x643) 0.0)) (or $x71 (<= (+ ?x1089 ?x1090 S_4 ?x1228 ?x337 ?x1377) 0.0)) (or $x2266 (<= (+ S_4 ?x368 L_3 ?x343 S_0) 0.0)) (or $x71 $x32011) (or $x71 (<= (+ L_1 ?x363 ?x368 ?x1654 L_3) (- 5.0))) $x33437 $x33441 (or $x51 (<= ?x18804 (- 5.0))) $x27157 $x56859 $x57621 (or $x71 (<= (+ ?x977 ?x968 S_3 ?x1161 ?x337 ?x643) 0.0)) (or $x71 (<= (+ ?x1063 ?x1064 ?x1385 S_2 ?x337 ?x1374) 0.0)) (or $x71 (<= (+ ?x368 S_2 L_3) (- 10.0))) $x33933 $x33976 (or $x61 $x33720 (<= (+ ?x365 L_2 ?x8662 ?x1385 ?x1374 S_0) (- 5.0))) $x56538 $x34016 (or $x71 $x33861) $x34 (<= (+ (* (- 1.0) A_0) S_0 L_0) 0.0) (<= (+ (* (- 1.0) S_3) S_1) (- 5.0)) (<= (+ (* (- 1.0) S_3) (* (/ 3.0 2.0) S_1) (* (- (/ 1.0 2.0)) S_0)) 0.0) $x2445 (<= (+ S_4 (* (- 1.0) S_3) ?x368 L_3 S_1) 0.0)))))))))))))))))))))))))))))))))))))))))))))))))))))))))))))))))))))))))))))))))))))))))))))))))))))))))))))))))))))))))))))))))))))))))))))))))))))))))
(check-sat)
